SDVRP instances/custom_instances/p01_15_split0.vrp
NAME:p01_15_split
BEST_KNOWN: 0
COMMENT: 0
DIMENSION: 208
CAPACITY: 160
EDGE_WEIGHT_FORMAT: FUNCTION
EDGE_WEIGHT_TYPE: EXACT_2D
NODE_COORD_SECTION
1 0.00000 0.00000
2 4 2
3 4 2
4 4 2
5 4 2
6 4 2
7 31 -37
8 31 -37
9 31 -37
10 31 -37
11 31 -37
12 31 -37
13 33 -14
14 33 -14
15 33 -14
16 44 15
17 44 15
18 -17 -35
19 -17 -35
20 -17 -35
21 -17 -35
22 -17 -35
23 17 36
24 17 36
25 17 36
26 17 36
27 -30 -13
28 -30 -13
29 -30 -13
30 1 -50
31 1 -50
32 1 -50
33 1 -50
34 1 -50
35 -46 -24
36 -46 -24
37 -46 -24
38 19 -48
39 19 -48
40 19 -48
41 19 -48
42 -39 -2
43 -39 -2
44 -39 -2
45 -39 -2
46 -39 -2
47 7 11
48 7 11
49 7 11
50 7 11
51 7 11
52 7 11
53 -16 28
54 21 -8
55 21 -8
56 21 -8
57 13 -27
58 13 -27
59 -9 26
60 -9 26
61 -9 26
62 -9 26
63 47 -49
64 47 -49
65 47 -49
66 47 -49
67 47 -49
68 47 -49
69 -20 46
70 -20 46
71 14 21
72 14 21
73 14 21
74 -19 -22
75 -19 -22
76 16 -45
77 16 -45
78 16 -45
79 16 -45
80 39 2
81 39 2
82 39 2
83 39 2
84 -2 -18
85 -2 -18
86 -2 -18
87 -2 -18
88 -2 -18
89 -4 -6
90 -4 -6
91 -4 -6
92 0 -7
93 0 -7
94 0 -7
95 0 -7
96 0 -7
97 0 -7
98 -47 33
99 -47 33
100 -47 33
101 -47 33
102 -47 33
103 31 -7
104 31 -7
105 31 -7
106 31 -7
107 31 -7
108 31 -7
109 -10 -49
110 -10 -49
111 -10 -49
112 -10 -49
113 -10 -49
114 -10 -49
115 15 -31
116 15 -31
117 15 -31
118 -17 0
119 -17 0
120 -17 0
121 -17 0
122 -17 0
123 -15 19
124 -15 19
125 14 -5
126 14 -5
127 14 -5
128 14 -5
129 14 -5
130 -15 -15
131 -15 -15
132 -15 -15
133 -15 -15
134 -15 -15
135 -16 -38
136 -16 -38
137 -16 -38
138 -16 -38
139 -16 -38
140 -16 -38
141 22 -4
142 22 -4
143 4 -3
144 4 -3
145 4 -3
146 4 -3
147 14 -46
148 14 -46
149 14 -46
150 -8 -23
151 -8 -23
152 -8 -23
153 -8 -23
154 -8 -23
155 -8 -23
156 -12 6
157 -12 6
158 -12 6
159 -12 6
160 26 -38
161 26 -38
162 26 -38
163 26 -38
164 4 -21
165 4 -21
166 4 -21
167 4 -21
168 4 -21
169 4 -21
170 12 33
171 12 33
172 12 33
173 12 33
174 12 33
175 12 33
176 -26 -2
177 -26 -2
178 -26 -2
179 -26 -2
180 -26 -2
181 -49 28
182 -49 28
183 -49 28
184 -11 15
185 -11 15
186 -11 15
187 -11 15
188 -11 15
189 -38 -2
190 -38 -2
191 -38 -2
192 -38 -2
193 -38 -2
194 -35 -13
195 -35 -13
196 -35 -13
197 -35 -13
198 -26 -22
199 -26 -22
200 -26 -22
201 -26 -22
202 13 -49
203 13 -49
204 13 -49
205 13 -49
206 24 24
207 24 24
208 24 24
DEMAND_SECTION
1 0
2 32
3 16
4 2
5 2
6 1
7 16
8 8
9 2
10 2
11 2
12 1
13 32
14 32
15 16
16 32
17 8
18 32
19 16
20 8
21 2
22 1
23 32
24 16
25 8
26 2
27 16
28 8
29 2
30 32
31 32
32 8
33 2
34 2
35 32
36 8
37 2
38 32
39 2
40 2
41 1
42 32
43 32
44 8
45 2
46 1
47 32
48 16
49 2
50 2
51 2
52 1
53 32
54 32
55 2
56 2
57 32
58 2
59 16
60 2
61 2
62 2
63 32
64 32
65 2
66 2
67 2
68 1
69 32
70 8
71 16
72 8
73 2
74 32
75 8
76 16
77 8
78 2
79 1
80 32
81 16
82 2
83 2
84 32
85 8
86 2
87 2
88 2
89 32
90 32
91 1
92 32
93 32
94 2
95 2
96 2
97 1
98 32
99 16
100 8
101 2
102 2
103 32
104 32
105 2
106 2
107 2
108 1
109 32
110 32
111 8
112 2
113 2
114 1
115 32
116 16
117 2
118 32
119 32
120 8
121 2
122 2
123 32
124 16
125 32
126 16
127 2
128 2
129 1
130 32
131 32
132 8
133 2
134 1
135 32
136 32
137 8
138 2
139 2
140 1
141 32
142 2
143 32
144 2
145 2
146 1
147 32
148 32
149 1
150 32
151 8
152 2
153 2
154 2
155 1
156 32
157 8
158 2
159 2
160 32
161 16
162 2
163 2
164 32
165 32
166 8
167 2
168 2
169 2
170 32
171 32
172 8
173 2
174 2
175 2
176 32
177 32
178 2
179 2
180 1
181 32
182 16
183 2
184 32
185 32
186 2
187 2
188 1
189 16
190 8
191 2
192 2
193 1
194 16
195 8
196 2
197 1
198 32
199 32
200 2
201 2
202 16
203 8
204 2
205 2
206 32
207 16
208 2
DEPOT_SECTION
1
-1
EOF