SDVRP instances/custom_instances/p01_15_split0.sol
207 -3 2 5 1 4 185 183 184 187 155 156 -11 9 6 10 8 7 65 67 64 62 63 66 161 159 160 162 -20 17 21 18 19 134 135 136 138 139 137 151 153 152 150 154 -27 28 26 194 196 195 193 44 41 42 45 43 189 191 190 192 188 -29 30 31 32 33 112 113 108 110 111 109 85 87 86 -34 36 35 200 198 199 197 74 73 -49 50 48 51 46 47 58 52 123 122 186 -54 55 12 14 13 107 105 104 102 106 103 -57 56 114 116 115 163 164 165 166 168 -61 59 60 69 68 97 101 98 100 99 181 180 182 158 157 -70 72 24 22 25 23 170 172 171 173 174 169 -71 207 206 205 16 15 82 79 81 80 -76 75 77 78 39 38 40 37 201 202 203 204 148 147 146 167 -84 83 149 130 129 131 132 133 -90 89 88 96 95 91 92 94 93 -117 121 120 118 119 178 179 175 177 176 -140 141 53 125 128 127 124 126 143 145 144 142 0 





OBJ=
1418.589
BEST_KNOWN=
0.000